langford/cnf/langford_6.cnf
p cnf 45 455
-12 -5 0
-24 -31 0
-7 -16 0
-3 -12 0
-16 -33 0
41 42 43 44 45 0
-23 -18 0
-5 -10 0
-31 -38 0
-1 -2 0
-5 -22 0
-22 -35 0
-21 -28 0
-6 -7 0
-12 -15 0
-11 -38 0
-18 -19 0
-3 -20 0
-5 -32 0
-42 -19 0
-1 -22 0
-36 -42 0
3 12 20 5 15 24 32 39 45 0
-6 -41 0
-6 -30 0
-32 -43 0
-24 -26 0
-13 -19 0
28 29 30 31 32 33 34 0
-26 -33 0
-36 -41 0
-4 -10 0
-28 -41 0
-6 -16 0
-24 -19 0
-28 -16 0
-15 -45 0
-14 -16 0
-13 -33 0
-11 -16 0
-32 -38 0
-18 -27 0
-7 -31 0
-34 -40 0
-12 -16 0
-14 -7 0
-6 -9 0
-20 -24 0
-16 -24 0
-29 -42 0
-28 -6 0
-17 -19 0
-21 -22 0
-42 -43 0
-28 -40 0
-4 -9 0
-35 -37 0
-2 -14 0
-29 -36 0
-12 -45 0
-2 -12 0
-13 -28 0
-7 -19 0
-31 -37 0
-14 -17 0
-11 -35 0
-11 -41 0
-6 -18 0
-42 -9 0
-3 -13 0
-35 -40 0
-13 -18 0
-8 -9 0
-20 -5 0
-12 -19 0
-1 -37 0
-22 -34 0
-30 -36 0
-24 -37 0
-38 -44 0
-36 -37 0
-20 -39 0
-13 -40 0
-17 -32 0
-14 -26 0
-7 -24 0
-11 -31 0
-22 -7 0
-21 -23 0
-28 -34 0
-8 -27 0
-5 -9 0
-23 -24 0
-11 -4 0
-38 -39 0
-20 -22 0
-12 -42 0
-13 -30 0
-2 -7 0
-1 -43 0
-2 -5 0
-17 -25 0
-4 -14 0
-1 -7 0
-6 -33 0
8 17 25 32 38 43 10 0
-9 -39 0
-1 -6 0
-1 -10 0
-24 -45 0
-32 -10 0
-29 -35 0
-43 -10 0
-21 -33 0
-15 -23 0
-35 -38 0
-23 -38 0
-4 -8 0
-43 -44 0
-15 -24 0
-1 -20 0
-3 -22 0
20 21 22 23 24 25 26 27 0
-31 -33 0
-30 -32 0
-10 -34 0
-30 -27 0
-21 -42 0
-31 -34 0
-15 -41 0
-16 -42 0
-35 -17 0
-37 -38 0
-35 -39 0
-12 -36 0
-12 -18 0
-13 -25 0
-32 -45 0
-36 -38 0
-30 -37 0
-14 -35 0
-22 -17 0
-41 -18 0
-12 -32 0
-2 -4 0
-11 -20 0
-5 -17 0
-11 -17 0
-2 -23 0
-3 -9 0
-17 -10 0
-3 -5 0
-24 -27 0
1 2 3 4 5 6 7 8 9 10 0
-5 -6 0
-29 -32 0
-43 -45 0
-21 -27 0
-24 -32 0
-3 -6 0
-4 -28 0
-20 -32 0
-4 -21 0
-13 -21 0
-3 -45 0
-5 -24 0
-22 -43 0
-35 -34 0
-1 -28 0
-1 -3 0
-36 -40 0
-14 -22 0
-15 -39 0
-1 -41 0
-25 -38 0
-2 -11 0
-5 -14 0
-37 -39 0
-14 -38 0
-20 -45 0
-38 -43 0
-12 -29 0
-29 -26 0
-27 -34 0
-32 -33 0
-12 -14 0
-15 -19 0
-28 -33 0
-13 -43 0
-4 -31 0
-5 -45 0
-7 -37 0
-31 -9 0
-4 -44 0
-39 -40 0
-11 -23 0
-37 -19 0
-1 -35 0
-1 -13 0
-3 -37 0
-36 -18 0
-2 -42 0
-17 -26 0
-29 -31 0
-27 -40 0
-4 -25 0
-8 -32 0
-28 -29 0
-2 -8 0
-28 -32 0
-17 -34 0
-18 -44 0
-2 -9 0
-5 -8 0
-41 -8 0
-35 -41 0
-24 -9 0
-14 -19 0
10 19 27 34 40 45 0
-31 -32 0
-6 -25 0
9 18 26 33 39 44 0
-39 -45 0
-28 -25 0
-21 -24 0
-44 -45 0
-5 -7 0
-23 -26 0
-21 -6 0
-33 -44 0
-20 -23 0
-8 -18 0
-3 -8 0
-11 -19 0
-42 -45 0
-10 -45 0
4 13 21 28 6 16 25 33 40 0
-22 -25 0
-7 -34 0
-13 -16 0
-7 -42 0
-23 -8 0
-15 -32 0
-5 -29 0
-19 -34 0
-8 -17 0
-11 -44 0
-23 -25 0
-2 -29 0
-5 -35 0
-2 -21 0
-25 -43 0
-4 -5 0
-6 -23 0
2 12 21 29 36 42 0
-11 -14 0
-28 -31 0
-6 -10 0
-12 -21 0
6 15 23 30 36 41 8 18 27 0
-25 -27 0
-1 -11 0
-42 -44 0
-17 -43 0
-1 -30 0
-20 -27 0
-22 -30 0
-39 -44 0
-3 -15 0
-23 -31 0
-12 -20 0
-22 -26 0
-14 -31 0
-4 -13 0
-4 -7 0
-6 -27 0
-7 -8 0
-25 -10 0
-32 -34 0
-41 -43 0
-38 -10 0
7 16 24 31 37 42 9 19 0
-11 -12 0
-15 -36 0
-6 -15 0
-1 -4 0
-37 -9 0
-23 -30 0
-3 -10 0
-5 -26 0
-14 -44 0
-12 -39 0
-20 -25 0
-23 -27 0
-37 -40 0
-19 -27 0
-13 -17 0
-20 -28 0
-8 -38 0
-9 -19 0
-3 -30 0
-22 -24 0
-14 -29 0
-30 -31 0
-30 -33 0
-41 -45 0
-5 -34 0
-2 -6 0
-12 -17 0
-8 -25 0
-10 -40 0
-25 -33 0
-9 -10 0
-17 -18 0
-5 -39 0
-13 -6 0
-16 -25 0
-15 -18 0
-10 -19 0
-9 -33 0
-26 -27 0
-41 -27 0
-31 -42 0
-30 -43 0
-1 -5 0
-9 -44 0
35 36 37 38 39 40 0
-15 -16 0
-7 -10 0
-16 -19 0
-20 -21 0
-22 -29 0
-19 -40 0
-18 -26 0
-4 -16 0
-33 -40 0
-14 -34 0
-23 -41 0
-36 -39 0
-22 -27 0
-15 -17 0
-3 -43 0
-15 -8 0
-28 -35 0
-27 -45 0
-20 -35 0
-3 -24 0
-16 -40 0
-25 -32 0
-7 -17 0
-3 -32 0
-38 -40 0
-29 -17 0
-9 -26 0
-21 -16 0
-37 -43 0
-13 -14 0
-34 -45 0
-11 -13 0
-6 -40 0
-32 -39 0
-30 -41 0
-10 -27 0
-5 -15 0
-13 -37 0
-22 -37 0
-8 -43 0
-25 -40 0
-13 -22 0
-21 -40 0
-3 -7 0
-14 -23 0
-33 -39 0
-41 -44 0
-18 -33 0
-23 -44 0
-7 -9 0
-23 -36 0
-16 -31 0
-6 -8 0
-33 -34 0
-2 -38 0
1 11 20 28 35 41 0
5 14 22 29 35 7 17 26 34 0
-1 -8 0
-16 -9 0
-41 -42 0
-4 -38 0
-12 -24 0
-2 -31 0
-6 -36 0
-2 -44 0
-20 -26 0
-13 -15 0
2 11 4 14 23 31 38 44 0
-12 -13 0
-15 -30 0
-40 -45 0
-2 -36 0
-28 -30 0
11 12 13 14 15 16 17 18 19 0
-21 -26 0
-24 -25 0
-4 -40 0
-22 -23 0
-26 -39 0
-30 -34 0
-21 -36 0
-20 -41 0
-19 -45 0
-11 -15 0
-29 -7 0
-24 -42 0
-30 -18 0
-35 -26 0
-18 -39 0
-2 -3 0
-17 -38 0
-3 -39 0
-37 -42 0
-29 -30 0
-35 -7 0
-20 -15 0
-3 -4 0
-9 -18 0
-29 -33 0
-15 -27 0
-25 -26 0
-16 -18 0
-8 -10 0
-4 -6 0
-14 -15 0
1 3 13 22 30 37 43 0
-1 -9 0
-4 -33 0
-14 -18 0
-35 -36 0
-2 -10 0
-31 -44 0
-11 -18 0
-16 -37 0
-21 -29 0
-4 -23 0
-16 -17 0
-11 -28 0
-26 -34 0
-21 -25 0
-7 -26 0
-24 -39 0
-30 -8 0
-31 -19 0
-26 -44 0
-29 -34 0
-36 -8 0
-36 -27 0
